(declare-fun cmp.i.i_51_18 () (_ BitVec 1))
(declare-fun xor.i_51_16 () (_ BitVec 64))
(declare-fun i_51_14 () (_ BitVec 64))
(declare-fun i5_51_15 () (_ BitVec 64))
(declare-fun reg_51_9 () (_ BitVec 64))
(declare-fun reg_51_8 () (_ BitVec 64))
(declare-fun reg_51_13 () (_ BitVec 8))
(declare-fun reg_51_12 () (_ BitVec 32))
(declare-fun reg_51_11 () (_ BitVec 32))
(declare-fun reg_51_10 () (_ BitVec 32))
(declare-fun reg_51_7 () (_ BitVec 64))
(declare-fun reg_51_6 () (_ BitVec 64))
(declare-fun reg_51_5 () (_ BitVec 64))
(declare-fun reg_51_4 () (_ BitVec 64))
(declare-fun reg_51_3 () (_ BitVec 32))
(declare-fun reg_51_2 () (_ BitVec 32))
(declare-fun reg_51_1 () (_ BitVec 32))
(declare-fun reg_51_0 () (_ BitVec 32))
(declare-fun add.i.i_51_64 () (_ BitVec 32))
(declare-fun i1_51_66 () (_ BitVec 32))
(declare-fun sub28.i.i.i_51_61 () (_ BitVec 32))
(declare-fun num.5.i.i.i_51_63 () (_ BitVec 32))
(declare-fun num.4.i.i.i_51_58 () (_ BitVec 32))
(declare-fun tobool26.not18.i.i.i_51_60 () (_ BitVec 1))
(declare-fun word.addr.4.i.i.i_51_57 () (_ BitVec 64))
(declare-fun num.3.i.i.i_51_50 () (_ BitVec 32))
(declare-fun sub22.i.i.i_51_54 () (_ BitVec 32))
(declare-fun tobool20.not.i.i.i_51_52 () (_ BitVec 1))
(declare-fun word.addr.3.i.i.i_51_49 () (_ BitVec 64))
(declare-fun shl23.i.i.i_51_56 () (_ BitVec 64))
(declare-fun num.2.i.i.i_51_42 () (_ BitVec 32))
(declare-fun sub16.i.i.i_51_46 () (_ BitVec 32))
(declare-fun tobool14.not.i.i.i_51_44 () (_ BitVec 1))
(declare-fun word.addr.2.i.i.i_51_41 () (_ BitVec 64))
(declare-fun shl17.i.i.i_51_48 () (_ BitVec 64))
(declare-fun num.1.i.i.i_51_34 () (_ BitVec 32))
(declare-fun sub10.i.i.i_51_38 () (_ BitVec 32))
(declare-fun tobool8.not.i.i.i_51_36 () (_ BitVec 1))
(declare-fun word.addr.1.i.i.i_51_33 () (_ BitVec 64))
(declare-fun shl11.i.i.i_51_40 () (_ BitVec 64))
(declare-fun spec.select17.i.i.i_51_26 () (_ BitVec 32))
(declare-fun sub4.i.i.i_51_30 () (_ BitVec 32))
(declare-fun tobool2.not.i.i.i_51_28 () (_ BitVec 1))
(declare-fun spec.select.i.i.i_51_23 () (_ BitVec 64))
(declare-fun shl5.i.i.i_51_32 () (_ BitVec 64))
(declare-fun tobool.not.i.i.i_51_20 () (_ BitVec 1))
(declare-fun shl.i.i.i_51_22 () (_ BitVec 64))
(declare-fun reg_51_103 () (_ BitVec 8))
(declare-fun reg_51_102 () (_ BitVec 32))
(declare-fun reg_51_101 () (_ BitVec 32))
(declare-fun reg_51_100 () (_ BitVec 32))
(declare-fun reg_51_99 () (_ BitVec 64))
(declare-fun reg_51_98 () (_ BitVec 64))
(declare-fun reg_51_97 () (_ BitVec 64))
(declare-fun reg_51_96 () (_ BitVec 64))
(declare-fun reg_51_95 () (_ BitVec 64))
(declare-fun and.i1_51_86 () (_ BitVec 64))
(declare-fun reg_51_94 () (_ BitVec 64))
(declare-fun and4.i_51_89 () (_ BitVec 64))
(declare-fun reg_51_93 () (_ BitVec 32))
(declare-fun reg_51_92 () (_ BitVec 32))
(declare-fun reg_51_91 () (_ BitVec 32))
(declare-fun reg_51_90 () (_ BitVec 32))
(declare-fun entry_tnum_range.exit_51_68 () Bool)
(declare-fun if.end.i.i_tnum_range.exit_51_67 () Bool)
(declare-fun not.i_51_88 () (_ BitVec 64))
(declare-fun or.i_51_85 () (_ BitVec 64))
(declare-fun i11_51_84 () (_ BitVec 64))
(declare-fun retval.sroa.3.0.i_51_82 () (_ BitVec 64))
(declare-fun i9_51_83 () (_ BitVec 64))
(declare-fun retval.sroa.0.0.i_51_80 () (_ BitVec 64))
(declare-fun sub.i_51_77 () (_ BitVec 64))
(declare-fun cmp.i_51_72 () (_ BitVec 1))
(declare-fun and.i_51_78 () (_ BitVec 64))
(declare-fun notmask.i_51_75 () (_ BitVec 64))
(declare-fun sh_prom.i_51_73 () (_ BitVec 64))
(declare-fun retval.0.i.i_51_69 () (_ BitVec 32))
(assert (let ((a!1 (=> (or (= cmp.i.i_51_18 #b0) (= cmp.i.i_51_18 #b1))
               (and (=> if.end.i.i_tnum_range.exit_51_67
                        (= retval.0.i.i_51_69 i1_51_66))
                    (=> entry_tnum_range.exit_51_68
                        (= retval.0.i.i_51_69 #x00000000))
                    (ite (bvugt retval.0.i.i_51_69 #x0000003f)
                         (= cmp.i_51_72 #b1)
                         (= cmp.i_51_72 #b0))
                    (= sh_prom.i_51_73 ((_ zero_extend 32) retval.0.i.i_51_69))
                    (= notmask.i_51_75
                       (bvshl #xffffffffffffffff sh_prom.i_51_73))
                    (= sub.i_51_77 (bvxor notmask.i_51_75 #xffffffffffffffff))
                    (= and.i_51_78 (bvand notmask.i_51_75 i_51_14))
                    (ite (= cmp.i_51_72 #b1)
                         (= retval.sroa.0.0.i_51_80 #x0000000000000000)
                         (= retval.sroa.0.0.i_51_80 and.i_51_78))
                    (ite (= cmp.i_51_72 #b1)
                         (= retval.sroa.3.0.i_51_82 #xffffffffffffffff)
                         (= retval.sroa.3.0.i_51_82 sub.i_51_77))
                    (= reg_51_4 i9_51_83)
                    (= reg_51_5 i11_51_84)
                    (= or.i_51_85 (bvor retval.sroa.0.0.i_51_80 i9_51_83))
                    (= and.i1_51_86 (bvand retval.sroa.3.0.i_51_82 i11_51_84))
                    (= not.i_51_88 (bvxor and.i1_51_86 #xffffffffffffffff))
                    (= and4.i_51_89 (bvand or.i_51_85 not.i_51_88))
                    (= if.end.i.i_tnum_range.exit_51_67 (= cmp.i.i_51_18 #b0))
                    (= entry_tnum_range.exit_51_68 (= cmp.i.i_51_18 #b1))
                    (= reg_51_0 reg_51_90)
                    (= reg_51_1 reg_51_91)
                    (= reg_51_2 reg_51_92)
                    (= reg_51_3 reg_51_93)
                    (= and4.i_51_89 reg_51_94)
                    (= and.i1_51_86 reg_51_95)
                    (= reg_51_6 reg_51_96)
                    (= reg_51_7 reg_51_97)
                    (= reg_51_8 reg_51_98)
                    (= reg_51_9 reg_51_99)
                    (= reg_51_10 reg_51_100)
                    (= reg_51_11 reg_51_101)
                    (= reg_51_12 reg_51_102)
                    (= reg_51_13 reg_51_103))))
      (a!2 (=> (= cmp.i.i_51_18 #b0)
               (and (ite (bvult xor.i_51_16 #x0000000100000000)
                         (= tobool.not.i.i.i_51_20 #b1)
                         (= tobool.not.i.i.i_51_20 #b0))
                    (= shl.i.i.i_51_22 (bvshl xor.i_51_16 #x0000000000000020))
                    (ite (= tobool.not.i.i.i_51_20 #b1)
                         (= spec.select.i.i.i_51_23 shl.i.i.i_51_22)
                         (= spec.select.i.i.i_51_23 xor.i_51_16))
                    (ite (= tobool.not.i.i.i_51_20 #b1)
                         (= spec.select17.i.i.i_51_26 #x0000001f)
                         (= spec.select17.i.i.i_51_26 #x0000003f))
                    (ite (bvult spec.select.i.i.i_51_23 #x0001000000000000)
                         (= tobool2.not.i.i.i_51_28 #b1)
                         (= tobool2.not.i.i.i_51_28 #b0))
                    (= sub4.i.i.i_51_30
                       (bvadd spec.select17.i.i.i_51_26 #xfffffff0))
                    (= shl5.i.i.i_51_32
                       (bvshl spec.select.i.i.i_51_23 #x0000000000000010))
                    (ite (= tobool2.not.i.i.i_51_28 #b1)
                         (= word.addr.1.i.i.i_51_33 shl5.i.i.i_51_32)
                         (= word.addr.1.i.i.i_51_33 spec.select.i.i.i_51_23))
                    (ite (= tobool2.not.i.i.i_51_28 #b1)
                         (= num.1.i.i.i_51_34 sub4.i.i.i_51_30)
                         (= num.1.i.i.i_51_34 spec.select17.i.i.i_51_26))
                    (ite (bvult word.addr.1.i.i.i_51_33 #x0100000000000000)
                         (= tobool8.not.i.i.i_51_36 #b1)
                         (= tobool8.not.i.i.i_51_36 #b0))
                    (= sub10.i.i.i_51_38 (bvadd num.1.i.i.i_51_34 #xfffffff8))
                    (= shl11.i.i.i_51_40
                       (bvshl word.addr.1.i.i.i_51_33 #x0000000000000008))
                    (ite (= tobool8.not.i.i.i_51_36 #b1)
                         (= word.addr.2.i.i.i_51_41 shl11.i.i.i_51_40)
                         (= word.addr.2.i.i.i_51_41 word.addr.1.i.i.i_51_33))
                    (ite (= tobool8.not.i.i.i_51_36 #b1)
                         (= num.2.i.i.i_51_42 sub10.i.i.i_51_38)
                         (= num.2.i.i.i_51_42 num.1.i.i.i_51_34))
                    (ite (bvult word.addr.2.i.i.i_51_41 #x1000000000000000)
                         (= tobool14.not.i.i.i_51_44 #b1)
                         (= tobool14.not.i.i.i_51_44 #b0))
                    (= sub16.i.i.i_51_46 (bvadd num.2.i.i.i_51_42 #xfffffffc))
                    (= shl17.i.i.i_51_48
                       (bvshl word.addr.2.i.i.i_51_41 #x0000000000000004))
                    (ite (= tobool14.not.i.i.i_51_44 #b1)
                         (= word.addr.3.i.i.i_51_49 shl17.i.i.i_51_48)
                         (= word.addr.3.i.i.i_51_49 word.addr.2.i.i.i_51_41))
                    (ite (= tobool14.not.i.i.i_51_44 #b1)
                         (= num.3.i.i.i_51_50 sub16.i.i.i_51_46)
                         (= num.3.i.i.i_51_50 num.2.i.i.i_51_42))
                    (ite (bvult word.addr.3.i.i.i_51_49 #x4000000000000000)
                         (= tobool20.not.i.i.i_51_52 #b1)
                         (= tobool20.not.i.i.i_51_52 #b0))
                    (= sub22.i.i.i_51_54 (bvadd num.3.i.i.i_51_50 #x000000fe))
                    (= shl23.i.i.i_51_56
                       (bvshl word.addr.3.i.i.i_51_49 #x0000000000000002))
                    (ite (= tobool20.not.i.i.i_51_52 #b1)
                         (= word.addr.4.i.i.i_51_57 shl23.i.i.i_51_56)
                         (= word.addr.4.i.i.i_51_57 word.addr.3.i.i.i_51_49))
                    (ite (= tobool20.not.i.i.i_51_52 #b1)
                         (= num.4.i.i.i_51_58 sub22.i.i.i_51_54)
                         (= num.4.i.i.i_51_58 num.3.i.i.i_51_50))
                    (ite (bvsgt word.addr.4.i.i.i_51_57 #xffffffffffffffff)
                         (= tobool26.not18.i.i.i_51_60 #b1)
                         (= tobool26.not18.i.i.i_51_60 #b0))
                    (= sub28.i.i.i_51_61
                       ((_ sign_extend 31) tobool26.not18.i.i.i_51_60))
                    (= num.5.i.i.i_51_63 (bvadd num.4.i.i.i_51_58 #x00000001))
                    (= add.i.i_51_64
                       (bvadd num.5.i.i.i_51_63 sub28.i.i.i_51_61))
                    (= i1_51_66 (bvand add.i.i_51_64 #x000000ff))))))
  (and a!1
       a!2
       (= reg_51_0 reg_51_0)
       (= reg_51_1 reg_51_1)
       (= reg_51_2 reg_51_2)
       (= reg_51_3 reg_51_3)
       (= reg_51_4 reg_51_4)
       (= reg_51_5 reg_51_5)
       (= reg_51_6 reg_51_6)
       (= reg_51_7 reg_51_7)
       (= reg_51_8 reg_51_8)
       (= reg_51_9 reg_51_9)
       (= reg_51_10 reg_51_10)
       (= reg_51_11 reg_51_11)
       (= reg_51_12 reg_51_12)
       (= reg_51_13 reg_51_13)
       (= reg_51_8 i_51_14)
       (= reg_51_9 i5_51_15)
       (= xor.i_51_16 (bvxor i5_51_15 i_51_14))
       (ite (= xor.i_51_16 #x0000000000000000)
            (= cmp.i.i_51_18 #b1)
            (= cmp.i.i_51_18 #b0)))))

;{"reg":["reg_51_0",[""],"reg_51_1","reg_51_2","reg_51_3",["reg_51_4","reg_51_5"],"reg_51_6","reg_51_7","reg_51_8","reg_51_9","","","reg_51_10","reg_51_11","reg_51_12"]}
;{"reg":["reg_51_90",[""],"reg_51_91","reg_51_92","reg_51_93",["reg_51_94","reg_51_95"],"reg_51_96","reg_51_97","reg_51_98","reg_51_99","","","reg_51_100","reg_51_101","reg_51_102"]}
